c Random 9-CNF over 40 variables and 160 clauses
c Generated with `cnfgen`
c (C) 2012-2016 Massimo Lauria <lauria.massimo@gmail.com>
c https://massimolauria.github.io/cnfgen
c
c COMMAND LINE: cnfgen --output tmp-9-40-160.dimacs --output-format dimacs randkcnf 9 40 160
c
c sdimacs generated by gen-sdimacs
c
p cnf 40 160
r 0.5 1 2 3 4 5 6 7 8 9 10 11 12 13 14 15 16 17 18 19 20 0
e  21 22 23 24 25 26 27 28 29 30 31 32 33 34 35 36 37 38 39 40 0
-2 -9 -14 -16 -19 24 -27 37 -39 0
7 13 -17 21 -24 26 -29 30 -31 0
3 -4 -5 12 15 27 30 32 -38 0
-2 4 5 -7 -12 15 20 -24 25 0
-4 -6 8 15 -16 -26 29 35 37 0
-8 -15 -17 -21 26 -27 -28 -39 40 0
-4 12 14 -17 21 24 26 27 -33 0
-1 -3 4 6 -17 24 29 30 39 0
2 5 10 -11 -16 -22 -29 38 39 0
-1 9 14 20 21 -22 -25 32 33 0
-11 16 -21 23 24 -26 -27 32 -40 0
2 -3 -8 9 -24 -26 -28 -30 39 0
-2 8 14 -17 18 -21 24 30 33 0
6 -11 -14 -15 18 23 -28 34 40 0
6 -11 12 13 -23 24 31 -35 -39 0
-4 -8 13 -17 -24 30 -32 -35 -38 0
-1 -6 -13 -17 18 -19 -20 24 36 0
1 -9 13 -17 -18 24 27 -29 32 0
2 -6 -11 -22 -23 24 27 -35 -39 0
1 3 4 -10 15 17 18 27 -38 0
-2 5 -10 -15 -18 20 22 28 30 0
4 -6 11 -13 14 16 -35 37 -38 0
-2 -3 -6 24 26 -27 33 37 38 0
2 5 9 12 15 -23 -26 27 -33 0
-6 -7 -11 12 -18 25 -29 31 33 0
-1 4 -10 14 15 19 20 -29 33 0
2 -6 -14 20 -21 -22 24 -25 -34 0
-2 -12 -16 18 -27 29 31 -33 38 0
14 16 -17 -18 -19 -27 29 34 -37 0
-4 11 -17 -24 25 28 35 -38 -39 0
5 -7 -13 22 24 -26 28 31 40 0
-6 7 8 13 -19 30 35 36 -38 0
8 -10 -15 -16 17 -21 -25 -26 37 0
-4 10 12 -13 17 -31 33 37 38 0
11 -12 19 21 24 -31 -33 38 40 0
-1 -2 4 6 12 -23 34 -35 -36 0
14 15 -23 24 29 -30 -33 37 40 0
-10 -14 -15 18 -26 -27 -30 -31 -37 0
1 3 -6 -15 23 -25 -33 -35 38 0
4 5 16 -27 29 -30 34 37 39 0
-1 2 -16 -17 26 -29 -30 -31 40 0
5 13 -18 20 21 23 25 -26 -36 0
-3 -5 8 -13 17 30 31 38 -39 0
8 15 18 -20 -21 22 -23 25 -28 0
1 6 -16 -18 20 -26 -27 -36 37 0
-2 6 11 21 -23 26 31 32 34 0
-3 -4 6 -11 18 -24 -32 -35 -40 0
2 -4 9 -12 -14 -19 20 22 23 0
5 -8 -13 -14 19 -29 31 34 39 0
-3 4 -6 -19 -30 32 33 -34 -37 0
3 11 12 17 21 23 29 -32 35 0
3 -6 -7 9 -13 -17 -24 25 -40 0
1 13 -14 16 -23 28 31 35 36 0
-1 -3 -8 12 -15 25 38 -39 -40 0
-7 -8 -11 14 20 -26 -27 -30 38 0
-1 4 9 13 -17 -24 -31 -39 -40 0
-16 18 24 26 -29 -30 34 -38 -39 0
10 -13 15 -17 -20 -22 -31 33 -40 0
-1 -6 9 -11 23 -26 31 -36 -39 0
-9 18 -25 -28 -29 -32 -34 -36 -38 0
-1 -6 -8 -14 -15 16 -26 -34 -38 0
-6 -10 -12 -19 22 -29 30 37 -39 0
-2 -7 9 10 -16 -21 -23 -26 -28 0
1 2 7 -8 13 -20 -28 -33 -34 0
-1 2 -5 15 -23 -25 30 38 -40 0
-8 9 -12 15 -16 18 -21 24 26 0
-1 4 -9 11 12 24 -28 -36 -39 0
-2 -3 5 -12 13 -16 22 -31 38 0
3 4 8 -14 22 29 31 34 39 0
-8 13 -15 16 -21 25 26 30 39 0
4 9 12 -13 -22 -23 -32 36 40 0
4 6 7 -14 -16 18 26 -27 29 0
-1 -7 9 -12 13 15 -16 19 -20 0
1 5 18 23 -25 26 -30 -33 -35 0
-1 2 4 9 10 24 -26 -28 35 0
2 -10 16 23 24 -26 -27 -31 -39 0
3 -7 8 9 -12 -25 -26 29 -40 0
-3 5 10 13 -26 -28 -29 -31 -32 0
1 -9 10 -13 -14 24 -35 36 -39 0
1 -2 -8 -16 -27 30 -32 -34 -39 0
3 5 -7 12 -14 -22 -24 29 -38 0
-3 -7 8 13 18 -33 36 39 40 0
2 5 -11 14 -17 -19 25 33 -40 0
-2 3 11 13 -14 18 -30 -36 -37 0
-9 -13 -22 23 -28 30 33 -34 -40 0
1 -4 11 18 19 22 27 -29 -36 0
-3 4 -5 15 20 28 -31 37 -39 0
7 -15 16 -19 21 22 24 26 -36 0
-1 -16 18 -19 21 -27 29 -32 -35 0
-1 5 6 -9 -12 -18 24 27 28 0
-5 -7 8 12 17 -22 -33 34 -39 0
-2 -7 8 15 -20 -25 28 -34 -38 0
2 -4 16 -26 -28 -30 31 -33 40 0
-1 -5 12 -16 -20 -32 -35 38 -40 0
-4 14 -15 -16 -24 -27 31 35 40 0
1 -5 -16 -27 29 -30 -32 -35 -38 0
2 -8 -11 -12 21 23 25 26 -27 0
1 3 5 -10 23 30 32 38 -39 0
2 4 -5 14 21 29 -30 31 -39 0
-5 6 12 -16 23 -25 27 -30 35 0
6 11 14 -24 -29 -31 32 34 38 0
-9 19 25 26 29 -30 -33 35 38 0
4 -6 -8 -9 11 19 28 29 -40 0
3 5 -7 11 12 -30 33 -37 40 0
4 -7 14 17 -24 -32 33 -37 -40 0
6 -13 -14 -15 -16 -19 23 30 38 0
-1 6 -14 -19 -22 -26 -28 -29 -35 0
1 -7 -12 -13 14 15 -19 -30 32 0
-2 10 11 21 24 -25 -28 30 33 0
4 -9 -13 -16 -20 26 -34 -35 37 0
-3 -12 13 -15 18 -28 31 32 -40 0
-1 -5 -8 13 16 -18 21 37 38 0
2 -6 -9 15 20 27 -28 -30 -31 0
-6 8 -11 14 15 31 -34 -38 -40 0
1 -2 8 17 -22 24 26 36 -37 0
-1 -8 -10 16 -20 26 -29 33 -35 0
-4 5 7 -9 20 -21 -22 24 -38 0
-2 4 8 -10 13 -14 -22 -30 -38 0
5 7 8 26 -28 33 34 -39 40 0
-1 -3 -9 11 19 -26 34 -38 40 0
-3 4 6 12 -14 -15 -18 -30 38 0
3 -13 -17 20 22 -27 30 34 -37 0
1 8 9 10 11 -14 -24 31 -32 0
3 -10 12 13 -15 17 -27 -29 39 0
-1 -3 -4 6 -12 -19 31 -34 -37 0
2 6 -8 12 21 -23 -24 27 -38 0
6 -10 11 -19 -23 27 29 37 -39 0
3 -4 -6 12 -17 -23 25 -36 40 0
1 -3 7 -13 -15 27 31 34 -37 0
4 -7 -16 -23 24 -26 27 31 33 0
-3 -5 -10 18 -20 -24 -25 -30 33 0
1 -2 -3 -12 -13 -15 -26 -31 -38 0
-2 3 16 23 -24 -28 -35 39 40 0
1 4 -12 16 -27 33 -34 38 40 0
-5 10 15 -17 -22 -26 -27 -29 38 0
-1 -5 6 -8 15 20 -21 34 -37 0
-5 7 10 -11 12 18 -19 -27 -38 0
2 5 6 -21 22 -25 26 -28 38 0
1 -5 11 17 18 -27 29 -31 -35 0
-1 -3 -9 13 14 -15 -17 27 -37 0
1 10 13 14 -16 23 -26 28 30 0
-4 6 -17 -20 -27 -31 -34 -36 -37 0
10 12 -14 -22 25 36 38 -39 40 0
5 -14 20 -26 32 35 36 -37 38 0
-4 -5 -12 -15 -25 29 34 36 -37 0
3 -6 -8 -9 15 -19 -26 -29 31 0
-3 5 -7 11 -25 29 34 36 -37 0
-4 -5 12 21 -29 -32 35 -36 -40 0
1 -13 23 28 -31 -32 -37 -39 -40 0
-1 -2 8 -16 20 22 24 38 40 0
1 2 -8 11 18 -20 -29 34 -35 0
-3 -9 18 -21 23 32 35 38 39 0
-5 -8 15 -24 27 34 35 -37 40 0
4 -8 -22 23 25 -27 -28 -36 37 0
2 3 -10 14 -17 22 -25 26 -34 0
-2 -3 8 -9 13 23 -27 32 -35 0
-2 -5 -9 -11 -16 26 -32 33 37 0
-5 9 -10 -12 -16 19 21 -24 -37 0
11 17 -18 24 27 -28 29 -31 -40 0
1 -2 -3 -5 6 -14 23 31 40 0
